NAME          TEST=)
ROWS
 N  OBJECTIVE
 L  C1
 L  C2
COLUMNS
    X1      OBJECTIVE          2   C1                 4
    X2      OBJECTIVE          3   C1                 6
    X1      C2                 2
    X2      C2                 2  
RHS
    RHS1    C1                 5   C2                 4
BOUNDS
 UP BND1    X1                 1
 LO BND1    X1                 0
ENDATA
